1      35.00      35.00       0.00       0.00    1000.00       0.00
2      41.00      49.00      10.00       0.00     974.00      10.00
3      35.00      17.00       7.00       0.00     972.00      10.00
4      55.00      45.00      13.00       0.00     967.00      10.00
5      55.00      20.00      19.00     620.00     860.00      10.00
6      15.00      30.00      26.00       0.00     969.00      10.00
7      25.00      30.00       3.00     345.00     585.00      10.00
8      20.00      50.00       5.00       0.00     968.00      10.00
9      10.00      43.00       9.00     323.00     563.00      10.00
10      55.00      60.00      16.00     329.00     569.00      10.00
11      30.00      60.00      16.00     485.00     725.00      10.00
12      20.00      65.00      12.00     146.00     386.00      10.00
13      50.00      35.00      19.00       0.00     975.00      10.00
14      30.00      25.00      23.00     639.00     879.00      10.00
15      15.00      10.00      20.00      32.00     272.00      10.00
16      30.00       5.00       8.00     118.00     358.00      10.00
17      10.00      20.00      19.00     203.00     443.00      10.00
18       5.00      30.00       2.00     682.00     922.00      10.00
19      20.00      40.00      12.00     286.00     526.00      10.00
20      15.00      60.00      17.00     204.00     444.00      10.00
21      45.00      65.00       9.00     504.00     744.00      10.00
22      45.00      20.00      11.00       0.00     971.00      10.00
23      45.00      10.00      18.00     332.00     572.00      10.00
24      55.00       5.00      29.00     146.00     386.00      10.00
25      65.00      35.00       3.00     656.00     896.00      10.00
26      65.00      20.00       6.00     716.00     956.00      10.00
27      45.00      30.00      17.00       0.00     978.00      10.00
28      35.00      40.00      16.00      60.00     300.00      10.00
29      41.00      37.00      16.00      65.00     305.00      10.00
30      64.00      42.00       9.00     132.00     372.00      10.00
31      40.00      60.00      21.00     187.00     427.00      10.00
32      31.00      52.00      27.00       0.00     972.00      10.00
33      35.00      69.00      23.00     599.00     839.00      10.00
34      53.00      52.00      11.00      24.00     264.00      10.00
35      65.00      55.00      14.00       0.00     953.00      10.00
36      63.00      65.00       8.00     630.00     870.00      10.00
37       2.00      60.00       5.00      41.00     281.00      10.00
38      20.00      20.00       8.00       0.00     968.00      10.00
39       5.00       5.00      16.00     234.00     474.00      10.00
40      60.00      12.00      31.00      33.00     273.00      10.00
41      40.00      25.00       9.00     279.00     519.00      10.00
42      42.00       7.00       5.00     334.00     574.00      10.00
43      24.00      12.00       5.00      25.00     265.00      10.00
44      23.00       3.00       7.00     543.00     783.00      10.00
45      11.00      14.00      18.00     167.00     407.00      10.00
46       6.00      38.00      16.00      29.00     269.00      10.00
47       2.00      48.00       1.00     452.00     692.00      10.00
48       8.00      56.00      27.00      48.00     288.00      10.00
49      13.00      52.00      36.00       0.00     962.00      10.00
50       6.00      68.00      30.00     401.00     641.00      10.00
51      47.00      47.00      13.00       0.00     973.00      10.00
52      49.00      58.00      10.00     281.00     521.00      10.00
53      27.00      43.00       9.00       0.00     978.00      10.00
54      37.00      31.00      14.00     332.00     572.00      10.00
55      57.00      29.00      18.00     568.00     808.00      10.00
56      63.00      23.00       2.00     560.00     800.00      10.00
57      53.00      12.00       6.00     519.00     759.00      10.00
58      32.00      12.00       7.00     356.00     596.00      10.00
59      36.00      26.00      18.00     740.00     980.00      10.00
60      21.00      24.00      28.00       0.00     972.00      10.00
61      17.00      34.00       3.00     672.00     912.00      10.00
62      12.00      24.00      13.00     214.00     454.00      10.00
63      24.00      58.00      19.00     113.00     353.00      10.00
64      27.00      69.00      10.00      34.00     274.00      10.00
65      15.00      77.00       9.00     154.00     394.00      10.00
66      62.00      77.00      20.00      49.00     289.00      10.00
67      49.00      73.00      25.00     523.00     763.00      10.00
68      67.00       5.00      25.00     228.00     468.00      10.00
69      56.00      39.00      36.00     575.00     815.00      10.00
70      37.00      47.00       6.00     108.00     348.00      10.00
71      37.00      56.00       5.00     728.00     968.00      10.00
72      57.00      68.00      15.00     198.00     438.00      10.00
73      47.00      16.00      25.00       0.00     967.00      10.00
74      44.00      17.00       9.00     234.00     474.00      10.00
75      46.00      13.00       8.00     622.00     862.00      10.00
76      49.00      11.00      18.00       0.00     962.00      10.00
77      49.00      42.00      13.00     212.00     452.00      10.00
78      53.00      43.00      14.00     730.00     970.00      10.00
79      61.00      52.00       3.00     322.00     562.00      10.00
80      57.00      48.00      23.00     307.00     547.00      10.00
81      56.00      37.00       6.00     728.00     968.00      10.00
82      55.00      54.00      26.00     314.00     554.00      10.00
83      15.00      47.00      16.00       0.00     966.00      10.00
84      14.00      37.00      11.00       0.00     968.00      10.00
85      11.00      31.00       7.00     354.00     594.00      10.00
86      16.00      22.00      41.00       0.00     966.00      10.00
87       4.00      18.00      35.00     307.00     547.00      10.00
88      28.00      18.00      26.00     314.00     554.00      10.00
89      26.00      52.00       9.00     214.00     454.00      10.00
90      26.00      35.00      15.00     718.00     958.00      10.00
91      31.00      67.00       3.00     320.00     560.00      10.00
92      15.00      19.00       1.00       0.00     964.00      10.00
93      22.00      22.00       2.00      18.00     258.00      10.00
94      18.00      24.00      22.00     729.00     969.00      10.00
95      26.00      27.00      27.00       0.00     977.00      10.00
96      25.00      24.00      20.00       0.00     975.00      10.00
97      22.00      27.00      11.00       0.00     974.00      10.00
98      25.00      21.00      12.00     523.00     763.00      10.00
99      19.00      21.00      10.00       0.00     968.00      10.00
100      20.00      26.00       9.00     263.00     503.00      10.00
101      18.00      18.00      17.00     725.00     965.00      10.00